results/real/sos1/heuristic-primal/mar_23_375.in
Version identifier: 22.1.0.0 | 2022-03-09 | 1a383f8ce
CPXPARAM_Threads                                 1
CPXPARAM_MIP_Strategy_VariableSelect             3
CPXPARAM_TimeLimit                               599.99953422700003
1 of 1 MIP starts provided solutions.
MIP start 'm1' defined initial solution with objective 375.0000.
Tried aggregator 2 times.
MIP Presolve eliminated 45 rows and 751 columns.
MIP Presolve added 36 rows and 9 columns.
MIP Presolve modified 44 coefficients.
Aggregator did 9 substitutions.
Reduced MIP has 2620 rows, 4125 columns, and 105766 nonzeros.
Reduced MIP has 4125 binaries, 0 generals, 0 SOSs, and 0 indicators.
Presolve time = 0.14 sec. (206.61 ticks)
Probing time = 0.01 sec. (14.83 ticks)
Tried aggregator 1 time.
Detecting symmetries...
MIP Presolve modified 11 coefficients.
Reduced MIP has 2620 rows, 4125 columns, and 105897 nonzeros.
Reduced MIP has 4125 binaries, 0 generals, 0 SOSs, and 0 indicators.
Presolve time = 0.10 sec. (157.59 ticks)
Probing time = 0.01 sec. (14.84 ticks)
Clique table members: 1865.
MIP emphasis: balance optimality and feasibility.
MIP search method: dynamic search.
Parallel mode: none, using 1 thread.
Root relaxation solution time = 0.02 sec. (13.90 ticks)

        Nodes                                         Cuts/
   Node  Left     Objective  IInf  Best Integer    Best Bound    ItCnt     Gap

*     0+    0                          375.0000    70500.0000              --- 
      0     0        cutoff            375.0000                     11     --- 

Root node processing (before b&c):
  Real time             =    0.37 sec. (485.70 ticks)
Sequential b&c:
  Real time             =    0.00 sec. (0.00 ticks)
                          ------------
Total (root+branch&cut) =    0.37 sec. (485.70 ticks)
Primal:	375
Dual:	375
Status:	Optimal
Time:	0.4
Sequence:
	7
	4
	10
	9
	9
	1
	0
	4
	4
	10
	9
	4
	1
	9
	3
	9
	1
	2
	1
	9
	7
	9
	6
	2
	5
	9
	10
	0
	1
	4
	7
	0
	4
	1
	4
	5
	0
	6
	4
	3
	0
	10
	9
	9
	10
	9
	7
	0
	1
	9
	1
	0
	9
	10
	0
	5
	4
	3
	0
	4
	4
	0
	10
	4
	1
	4
	9
	7
	0
	4
	4
	1
	4
	7
	0
	10
	9
	6
	0
	4
	10
	4
	6
	0
	7
	9
	5
	9
	0
	1
	4
	1
	9
	4
	9
	0
	3
	4
	4
	10
	9
	9
	7
	0
	4
	6
	0
	4
	5
	9
	7
	4
	10
	4
	0
	10
	9
	4
	4
	1
	0
	5
	9
	1
	0
	9
	7
	9
	9
	0
	5
	4
	1
	4
	4
	9
	5
	4
	0
	7
	4
	0
	4
	6
	9
	5
	4
	1
	4
	4
	0
	5
	4
	1
	4
	5
	0
	5
	4
	1
	4
	4
	0
	4
	5
	9
	5
	4
	9
	5
	4
	0
	7
	4
	0
	5
	4
	1
	4
	4
	9
	4
	6
	0
	5
	9
	7
	4
	0
	6
	4
	9
	1
	9
	7
	9
	5
	0
	5
	9
	5
	0
	1
	9
	7
	4
	1
	0
	5
	9
	1
	0
	1
	4
	4
	1
	4
	7
	9
	6
	9
	5
	9
	5
	0
	5
	9
	6
	0
	5
	9
	5
	4
	9
	5
	4
	1
	9
	7
	0
	5
	9
	6
	0
	5
	4
	0
	5
	9
	1
	4
	1
	9
	5
	0
	7
	9
	5
	0
	6
	4
	0
	1
	9
	1
	0
	1
	9
	5
	9
	5
	9
	7
	4
	1
	9
	5
	4
	1
	0
	1
	9
	7
	9
	5
	0
	4
	4
	0
	5
	9
	6
	0
	5
	9
	5
	9
	5
	4
	9
	6
	4
	0
	7
	4
	9
	5
	0
	5
	4
	9
	5
	9
	5
	9
	5
	9
	7
	0
	6
	4
	0
	5
	4
	0
	5
	4
	0
	5
	9
	7
	0
	6
	9
	5
	0
	5
	9
	5
	9
	5
	4
	9
	6
	9
	9
	7
	4
	0
	4
	9
	5
	0
	4
	5
	9
	6
	9
	5
	9
	5
	9
	5
	4
	9
	6
	9
	4
	5
	9
	5
	4
	9
	7
	4
